
  32    4
  10   10   10   10

   0   0   0   0   0   1 2 
   4   1   1   0   1   1 3 
   4   4   4   0   4   1 4 
   1   4   4   1   0   1 5 
   9   1   0   2   5   1 6 
   5   4   4   3   0   1 7 
   1   5   5   6   0   1 8 
   5   4   4   0   3   1 9 
   5   6   0   5   4   1 10 
  10   0   5   3   5   1 11 
   3   4   0   3   1   1 12 
  10   4   7   0   3   1 13 
   2   4   0   7   4   1 14 
   8   3   0   4   6   2 19 15 
   9   0   3   4   5   1 16 
   3   2   0   3   1   1 17 
   2   5   5   0   4   1 18 
   4   0   4   4   4   2 27 20 
   8   3   2   6   0   2 27 21 
   2   6   3   0   7   1 21 
  10   5   6   1   0   1 22 
   6   2   5   7   0   1 23 
   2   6   2   4   0   1 24 
   6   8   0   5   3   1 25 
   1   3   0   5   4   1 26 
   2   0   3   3   2   1 28 
   1   0   6   4   2   1 28 
   9   3   3   5   0   2 31 29 
   1   3   2   0   6   1 30 
   3   5   6   3   0   1 32
   2   5   4   0  10   1 32
   0   0   0   0   0   0 
